
Log started (V11.0.0) Sun Apr 13 13:00:50 2008

Tried aggregator 1 time.
Reduced MIP has 150 rows, 5001 columns, and 10050 nonzeros.
Presolve time =    0.05 sec.
Clique table members: 100.
MIP emphasis: balance optimality and feasibility.
MIP search method: dynamic search.
Parallel mode: none, using 1 thread.
Root relaxation solution time =    0.13 sec.

        Nodes                                         Cuts/
   Node  Left     Objective  IInf  Best Integer     Best Node    ItCnt     Gap

*     0+    0                         5071.0000        6.4077      741   99.87%
*     0+    0                           17.0000        6.4077      741   62.31%
      0     0        7.0000    60       17.0000      Fract: 4      756   58.82%
*     0+    0                           16.0000        7.0000      756   56.25%
      0     0        7.0000    55       16.0000   Impl Bds: 1      762   56.25%
*     0+    0                           15.0000        7.0000      762   53.33%
      0     0        7.0000    55       15.0000   Impl Bds: 1      765   53.33%
*     0+    0                           13.0000        7.0000      765   46.15%
      0     0       11.0000    20       13.0000       Cuts: 3      798   15.38%
*     0+    0                           12.0000       11.0000      798    8.33%
      0     0       11.0000    12       12.0000   Flowcuts: 6      809    8.33%
*     0+    0                           11.0000       11.0000      809    0.00%

Implied bound cuts applied:  2
Flow cuts applied:  7
Zero-half cuts applied:  1

Solution pool: 7 solutions saved.

MIP - Integer optimal solution:  Objective = 1.1000000000e+001
Solution time =    0.41 sec.  Iterations = 809  Nodes = 0


Incumbent solution
Variable Name           Solution Value
Cmax                         11.000000
X_1_50                        1.000000
X_2_2                         1.000000
X_3_29                        1.000000
X_4_49                        1.000000
X_5_12                        1.000000
X_6_8                         1.000000
X_7_22                        1.000000
X_8_2                         1.000000
X_9_25                        1.000000
X_10_10                       1.000000
X_11_19                       1.000000
X_12_44                       1.000000
X_13_50                       1.000000
X_14_5                        1.000000
X_15_41                       1.000000
X_16_8                        1.000000
X_17_3                        1.000000
X_18_33                       1.000000
X_19_6                        1.000000
X_20_2                        1.000000
X_21_41                       1.000000
X_22_19                       1.000000
X_23_46                       1.000000
X_24_20                       1.000000
X_25_10                       1.000000
X_26_9                        1.000000
X_27_38                       1.000000
X_28_18                       1.000000
X_29_16                       1.000000
X_30_48                       1.000000
X_31_16                       1.000000
X_32_32                       1.000000
X_33_46                       1.000000
X_34_37                       1.000000
X_35_2                        1.000000
X_36_27                       1.000000
X_37_15                       1.000000
X_38_46                       1.000000
X_39_40                       1.000000
X_40_21                       1.000000
X_41_46                       1.000000
X_42_25                       1.000000
X_43_4                        1.000000
X_44_34                       1.000000
X_45_21                       1.000000
X_46_44                       1.000000
X_47_14                       1.000000
X_48_8                        1.000000
X_49_6                        1.000000
X_50_22                       1.000000
X_51_13                       1.000000
X_52_10                       1.000000
X_53_36                       1.000000
X_54_13                       1.000000
X_55_5                        1.000000
X_56_11                       1.000000
X_57_14                       1.000000
X_58_43                       1.000000
X_59_36                       1.000000
X_60_50                       1.000000
X_61_15                       1.000000
X_62_49                       1.000000
X_63_24                       1.000000
X_64_26                       1.000000
X_65_28                       1.000000
X_66_31                       1.000000
X_67_42                       1.000000
X_68_33                       1.000000
X_69_47                       1.000000
X_70_24                       1.000000
X_71_26                       1.000000
X_72_5                        1.000000
X_73_24                       1.000000
X_74_41                       1.000000
X_75_7                        1.000000
X_76_18                       1.000000
X_77_38                       1.000000
X_78_11                       1.000000
X_79_41                       1.000000
X_80_45                       1.000000
X_81_1                        1.000000
X_82_45                       1.000000
X_83_23                       1.000000
X_84_26                       1.000000
X_85_17                       1.000000
X_86_23                       1.000000
X_87_40                       1.000000
X_88_32                       1.000000
X_89_33                       1.000000
X_90_27                       1.000000
X_91_14                       1.000000
X_92_25                       1.000000
X_93_1                        1.000000
X_94_22                       1.000000
X_95_4                        1.000000
X_96_33                       1.000000
X_97_9                        1.000000
X_98_47                       1.000000
X_99_8                        1.000000
X_100_10                      1.000000
All other variables in the range 1-5001 are 0.
